\ This file has been generated by DOcplex
\ ENCODING=ISO-8859-1
\Problem name: AMC MIP Optimization-Dynamic

Maximize
 obj: 7 x_0 + 8 x_1 + 2 x_2 + 9 x_3 + 6 x_4
Subject To
 c1: 5 x_0 + 7 x_1 + 9 x_2 + 2 x_3 + x_4 <= 250
 c2: 18 x_0 + 4 x_1 - 9 x_2 + 10 x_3 + 12 x_4 <= 285
 c3: 4 x_0 + 7 x_1 + 3 x_2 + 8 x_3 + 5 x_4 <= 211
 c4: 5 x_0 + 13 x_1 + 16 x_2 + 3 x_3 - 7 x_4 <= 315

Bounds

Generals
 x_0 x_1 x_2 x_3 x_4
End
